(declare-fun temp44624_1 () (_ BitVec 64))
(declare-fun temp44624_2 () (_ BitVec 64))
(declare-fun var77740 () (_ BitVec 64))
(declare-fun k!0 () Bool)
(declare-fun ARGNAME_filter_NAMEEND_DIM () (_ BitVec 64))
(declare-fun ARGNAME_data_format_NAMEEND_STRFMT () (_ BitVec 64))
(declare-fun temp44624_3 () (_ BitVec 64))
(declare-fun ARGNAME_out_backprop_NAMEEND_DIM () (_ BitVec 64))
(declare-fun var77770 () (_ BitVec 64))
(declare-fun temp44624_4 () (_ BitVec 64))
(declare-fun temp44624_5 () (_ BitVec 64))
(declare-fun ARGNAME_filter_NAMEEND_DIMSIZE
             ()
             (Array (_ BitVec 64) (_ BitVec 64)))
(declare-fun temp44624_6 () (_ BitVec 64))
(declare-fun temp44624_7 () (_ BitVec 64))
(declare-fun temp44624_8 () (_ BitVec 64))
(declare-fun temp44624_9 () (_ BitVec 64))
(declare-fun temp44624_10 () (_ BitVec 64))
(declare-fun temp44624_11 () (_ BitVec 64))
(declare-fun temp44624_12 () (_ BitVec 64))
(declare-fun temp44624_13 () (_ BitVec 64))
(declare-fun temp44624_14 () (_ BitVec 64))
(declare-fun temp44624_15 () (_ BitVec 64))
(declare-fun temp44624_16 () (_ BitVec 64))
(declare-fun temp44624_17 () (_ BitVec 64))
(declare-fun temp44624_18 () (_ BitVec 64))
(declare-fun var77799 () (_ BitVec 64))
(declare-fun temp44624_19 () (_ BitVec 64))
(declare-fun ARGNAME_out_backprop_NAMEEND_DIMSIZE
             ()
             (Array (_ BitVec 64) (_ BitVec 64)))
(declare-fun temp44624_20 () (_ BitVec 64))
(declare-fun temp44624_21 () (_ BitVec 64))
(declare-fun temp44624_22 () (_ BitVec 64))
(declare-fun temp44624_23 () (_ BitVec 64))
(declare-fun temp44624_24 () (_ BitVec 64))
(declare-fun temp44624_25 () (_ BitVec 64))
(declare-fun temp44624_26 () (_ BitVec 64))
(declare-fun temp44624_27 () (_ BitVec 64))
(declare-fun temp44624_28 () (_ BitVec 64))
(declare-fun temp44624_29 () (_ BitVec 64))
(declare-fun temp44624_30 () (_ BitVec 64))
(declare-fun temp44624_31 () (_ BitVec 64))
(declare-fun temp44624_32 () (_ BitVec 64))
(declare-fun var77832 () (_ BitVec 64))
(declare-fun temp44624_33 () (_ BitVec 64))
(declare-fun temp44624_34 () (_ BitVec 64))
(declare-fun var77833 () (_ BitVec 64))
(declare-fun var77834 () (_ BitVec 64))
(declare-fun temp44624_35 () (_ BitVec 64))
(declare-fun temp44624_36 () (_ BitVec 64))
(declare-fun var275510 () (_ BitVec 64))
(declare-fun temp44624_37 () (_ BitVec 64))
(declare-fun var275528 () (_ BitVec 64))
(declare-fun temp44624_38 () (_ BitVec 64))
(declare-fun temp44624_40 () (_ BitVec 64))
(declare-fun temp44624_39 () (_ BitVec 64))
(declare-fun temp44624_42 () (_ BitVec 64))
(declare-fun temp44624_41 () (_ BitVec 64))
(declare-fun temp44624_43 () (_ BitVec 64))
(declare-fun var406582 () (_ BitVec 64))
(declare-fun temp44624_44 () (_ BitVec 64))
(declare-fun var406600 () (_ BitVec 64))
(declare-fun temp44624_45 () (_ BitVec 64))
(declare-fun temp44624_46 () (_ BitVec 64))
(declare-fun var537654 () (_ BitVec 64))
(declare-fun temp44624_47 () (_ BitVec 64))
(declare-fun var537672 () (_ BitVec 64))
(declare-fun temp44624_48 () (_ BitVec 64))
(declare-fun temp44624_50 () (_ BitVec 64))
(declare-fun temp44624_49 () (_ BitVec 64))
(declare-fun temp44624_52 () (_ BitVec 64))
(declare-fun temp44624_51 () (_ BitVec 64))
(declare-fun temp44624_54 () (_ BitVec 64))
(declare-fun temp44624_53 () (_ BitVec 64))
(declare-fun temp44624_56 () (_ BitVec 64))
(declare-fun temp44624_55 () (_ BitVec 64))
(declare-fun temp44624_57 () (_ BitVec 64))
(declare-fun var926795 () (_ BitVec 64))
(declare-fun var926774 () (_ BitVec 64))
(declare-fun var730147 () (_ BitVec 64))
(declare-fun temp44624_58 () (_ BitVec 64))
(declare-fun temp44624_59 () (_ BitVec 64))
(declare-fun var1123378 () (_ BitVec 64))
(declare-fun temp44624_60 () (_ BitVec 64))
(declare-fun var1188914 () (_ BitVec 64))
(declare-fun temp44624_61 () (_ BitVec 64))
(declare-fun var1254450 () (_ BitVec 64))
(declare-fun temp44624_62 () (_ BitVec 64))
(declare-fun var78184 () (_ BitVec 64))
(assert (or (= ARGNAME_data_format_NAMEEND_STRFMT #x0000000000000000)
    (= ARGNAME_data_format_NAMEEND_STRFMT #x0000000000000001)
    (= ARGNAME_data_format_NAMEEND_STRFMT #x0000000000000002)
    (= ARGNAME_data_format_NAMEEND_STRFMT #x0000000000000003)
    (= ARGNAME_data_format_NAMEEND_STRFMT #x0000000000000004)
    (= ARGNAME_data_format_NAMEEND_STRFMT #x0000000000000005)))
(assert (= temp44624_1 #x0000000000000005))
(assert (= var77740
   (ite (= ARGNAME_filter_NAMEEND_DIM temp44624_1)
        #x0000000000000001
        #x0000000000000000)))
(assert (= temp44624_2 #x0000000000000001))
(assert (= var77740 temp44624_2))
(assert (= temp44624_3 #x0000000000000005))
(assert (= var77770
   (ite (= ARGNAME_out_backprop_NAMEEND_DIM temp44624_3)
        #x0000000000000001
        #x0000000000000000)))
(assert (= temp44624_4 #x0000000000000001))
(assert (= var77770 temp44624_4))
(assert (= temp44624_5 #x0000000000000000))
(assert (= temp44624_6 (select ARGNAME_filter_NAMEEND_DIMSIZE temp44624_5)))
(assert (= temp44624_7 #x0000000000000001))
(assert (= temp44624_8 (select ARGNAME_filter_NAMEEND_DIMSIZE temp44624_7)))
(assert (= temp44624_9 #x0000000000000002))
(assert (= temp44624_10 (select ARGNAME_filter_NAMEEND_DIMSIZE temp44624_9)))
(assert (= temp44624_11 #x0000000000000003))
(assert (= temp44624_12 (select ARGNAME_filter_NAMEEND_DIMSIZE temp44624_11)))
(assert (= temp44624_13 #x0000000000000004))
(assert (= temp44624_14 (select ARGNAME_filter_NAMEEND_DIMSIZE temp44624_13)))
(assert (= temp44624_15 #x0000000000000005))
(assert (= temp44624_16 (select ARGNAME_filter_NAMEEND_DIMSIZE temp44624_15)))
(assert (= temp44624_17 #x0000000000000003))
(assert (= temp44624_18 (select ARGNAME_filter_NAMEEND_DIMSIZE temp44624_17)))
(assert (= var77799 temp44624_18))
(assert (= temp44624_19 #x0000000000000000))
(assert (= temp44624_20 (select ARGNAME_out_backprop_NAMEEND_DIMSIZE temp44624_19)))
(assert (= temp44624_21 #x0000000000000001))
(assert (= temp44624_22 (select ARGNAME_out_backprop_NAMEEND_DIMSIZE temp44624_21)))
(assert (= temp44624_23 #x0000000000000002))
(assert (= temp44624_24 (select ARGNAME_out_backprop_NAMEEND_DIMSIZE temp44624_23)))
(assert (= temp44624_25 #x0000000000000003))
(assert (= temp44624_26 (select ARGNAME_out_backprop_NAMEEND_DIMSIZE temp44624_25)))
(assert (= temp44624_27 #x0000000000000004))
(assert (= temp44624_28 (select ARGNAME_out_backprop_NAMEEND_DIMSIZE temp44624_27)))
(assert (= temp44624_29 #x0000000000000005))
(assert (= temp44624_30 (select ARGNAME_out_backprop_NAMEEND_DIMSIZE temp44624_29)))
(assert (= temp44624_31 #x0000000000000004))
(assert (= temp44624_32 (select ARGNAME_out_backprop_NAMEEND_DIMSIZE temp44624_31)))
(assert (= var77832 temp44624_32))
(assert (= temp44624_33 #x0000000000000004))
(assert (= temp44624_34 (select ARGNAME_filter_NAMEEND_DIMSIZE temp44624_33)))
(assert (= var77833 temp44624_34))
(assert (= var77834 (ite (= var77832 var77833) #x0000000000000001 #x0000000000000000)))
(assert (= temp44624_35 #x0000000000000001))
(assert (= var77834 temp44624_35))
(assert (= temp44624_36 #x0000000000000001))
(assert (= var275510 temp44624_36))
(assert (= temp44624_37 #x0000000000000001))
(assert (= var275528
   (ite (bvslt var275510 temp44624_37) #x0000000000000001 #x0000000000000000)))
(assert (= temp44624_38 #x0000000000000000))
(assert (= var275528 temp44624_38))
(assert (= temp44624_40 #x0000000000000000))
(assert (= temp44624_39 temp44624_40))
(assert (= temp44624_42 #x0000000000000000))
(assert (= temp44624_41 temp44624_42))
(assert (= temp44624_43 #x0000000000000001))
(assert (= var406582 temp44624_43))
(assert (= temp44624_44 #x0000000000000001))
(assert (= var406600
   (ite (bvslt var406582 temp44624_44) #x0000000000000001 #x0000000000000000)))
(assert (= temp44624_45 #x0000000000000000))
(assert (= var406600 temp44624_45))
(assert (= temp44624_46 #x0000000000000001))
(assert (= var537654 temp44624_46))
(assert (= temp44624_47 #x0000000000000001))
(assert (= var537672
   (ite (bvslt var537654 temp44624_47) #x0000000000000001 #x0000000000000000)))
(assert (= temp44624_48 #x0000000000000000))
(assert (= var537672 temp44624_48))
(assert (= temp44624_50 #x0000000000000000))
(assert (= temp44624_49 temp44624_50))
(assert (= temp44624_52 #x00000000000000ff))
(assert (= temp44624_51 temp44624_52))
(assert (= temp44624_54 #x00000000000000ff))
(assert (= temp44624_53 temp44624_54))
(assert (= temp44624_56 #x00000000000000ff))
(assert (= temp44624_55 temp44624_56))
(assert (= temp44624_57 #x0000000000000000))
(assert (= var926795 temp44624_57))
(assert (= var926774 var926795))
(assert (= var730147 var926774))
(assert (= temp44624_58 #x0000000000000000))
(assert (= var730147 temp44624_58))
(assert (= temp44624_59 #x0000000000008000))
(assert (= var1123378 temp44624_59))
(assert (= temp44624_60 #x0000000000040000))
(assert (= var1188914 temp44624_60))
(assert (= temp44624_61 #x0000000000200000))
(assert (= var1254450 temp44624_61))
(assert (= temp44624_62 #x0000000000000001))
(assert (= var78184 temp44624_62))
(model-add temp44624_1 () (_ BitVec 64) #x0000000000000005)
(model-add temp44624_2 () (_ BitVec 64) #x0000000000000001)
(model-add var77740 () (_ BitVec 64) #x0000000000000001)
(model-del k!0)
(model-add ARGNAME_filter_NAMEEND_DIM
           ()
           (_ BitVec 64)
           (ite k!0 #x0000000000000005 (bvnot #x0000000000000005)))


